results_rootrelaxation/bin018_050_009.srr.sol
solution status: optimal solution found
objective value:                                    0
_var516_                            0.102672090047751 	(obj:0)
_var1336_                          0.0850705341052886 	(obj:0)
_var2698_                           0.177168565317806 	(obj:0)
_var2699_                           0.301574594198234 	(obj:0)
_var2700_                         0.00771517262107652 	(obj:0)
_var2702_                          0.0280064605495121 	(obj:0)
_var2705_                             0.0660007513223 	(obj:0)
_var2706_                           0.046321956628826 	(obj:0)
_var2707_                          0.0557175112150381 	(obj:0)
_var2711_                           0.194967150824261 	(obj:0)
_var2713_                           0.304762979573984 	(obj:0)
_var2720_                           0.293262161248896 	(obj:0)
_var2721_                           0.140072042346579 	(obj:0)
_var2723_                           0.118642413089335 	(obj:0)
_var2724_                          0.0506449918315038 	(obj:0)
_var2728_                            0.24743699218611 	(obj:0)
_var2735_                           0.207285394512067 	(obj:0)
_var2738_                           0.274345258232994 	(obj:0)
_var2748_                           0.186301542238111 	(obj:0)
_var2752_                           0.335371174981205 	(obj:0)
_var2755_                          0.0206084116904478 	(obj:0)
_var2758_                           0.100053366361117 	(obj:0)
_var2761_                           0.230292924986049 	(obj:0)
_var2763_                         0.00753658142845751 	(obj:0)
_var2764_                          0.0931719312777665 	(obj:0)
_var2765_                           0.221717523623141 	(obj:0)
_var2776_                           0.231842790355683 	(obj:0)
_var2785_                           0.329539119620554 	(obj:0)
_var2787_                             0.2075652059371 	(obj:0)
_var2789_                          0.0188036849087876 	(obj:0)
_var2791_                            0.17351296622763 	(obj:0)
_var2794_                           0.240237340916972 	(obj:0)
_var2795_                           0.232806705758633 	(obj:0)
_var2797_                           0.061718771973906 	(obj:0)
_var2800_                           0.296632425597129 	(obj:0)
_var2801_                          0.0568820136712967 	(obj:0)
_var2804_                           0.313473568427446 	(obj:0)
_var2805_                            0.11422873704875 	(obj:0)
_var2806_                          0.0485231164333838 	(obj:0)
_var2807_                           0.147812797063902 	(obj:0)
_var2808_                           0.218171513172761 	(obj:0)
_var2809_                           0.129673630131715 	(obj:0)
_var2813_                           0.251977891307391 	(obj:0)
_var2814_                           0.179446740965289 	(obj:0)
_var2815_                          0.0274974116128245 	(obj:0)
_var2816_                         0.00736954380377344 	(obj:0)
_var2820_                          0.0150617495088614 	(obj:0)
_var2821_                          0.0591581081197965 	(obj:0)
_var2822_                           0.166125294634959 	(obj:0)
_var2823_                          0.0318479706562642 	(obj:0)
_var2825_                           0.137565904595908 	(obj:0)
_var2826_                           0.152849615634532 	(obj:0)
_var2827_                          0.0557993842665831 	(obj:0)
_var2829_                          0.0249451027779587 	(obj:0)
_var2831_                          0.0537578355865749 	(obj:0)
_var2832_                           0.143639281467871 	(obj:0)
_var2833_                          0.0889863327578079 	(obj:0)
_var2835_                           0.275250159156994 	(obj:0)
_var2837_                          0.0195819545735714 	(obj:0)
_var2839_                          0.0101658896927044 	(obj:0)
_var2842_                          0.0712980528339307 	(obj:0)
_var2843_                          0.0447985446301292 	(obj:0)
_var2846_                           0.235581074487354 	(obj:0)
_var2848_                           0.270476160886781 	(obj:0)
_var2849_                           0.173968371165009 	(obj:0)
_var2851_                          0.0973927789814913 	(obj:0)
_var2855_                           0.019897665390396 	(obj:0)
_var2856_                          0.0870715951690668 	(obj:0)
_var2859_                           0.227422718820492 	(obj:0)
_var2861_                           0.260231911038654 	(obj:0)
_var2862_                            0.05203059329269 	(obj:0)
_var2864_                          0.0347809747008986 	(obj:0)
_var2865_                          0.0535913111857519 	(obj:0)
_var2867_                           0.286039407877696 	(obj:0)
_var2869_                           0.028430941514493 	(obj:0)
_var2870_                          0.0512779567075461 	(obj:0)
_var2871_                           0.270881826283191 	(obj:0)
_var2873_                           0.169783237312765 	(obj:0)
_var2874_                          0.0883920255680588 	(obj:0)
_var2875_                           0.252624363942761 	(obj:0)
_var2877_                          0.0825611608135744 	(obj:0)
_var2881_                           0.107235834516526 	(obj:0)
_var2882_                           0.216283650145934 	(obj:0)
_var2888_                          0.0918266752506432 	(obj:0)
_var2889_                          0.0170603822049182 	(obj:0)
_var2890_                          0.0565703343707017 	(obj:0)
_var2891_                           0.168692903325959 	(obj:0)
_var2895_                          0.0212466644832897 	(obj:0)
_var2896_                           0.264001229817858 	(obj:0)
_var2901_                           0.153883291566595 	(obj:0)
_var2902_                           0.158321726304928 	(obj:0)
_var2903_                          0.0226713629401655 	(obj:0)
_var2905_                          0.0402088512387734 	(obj:0)
_var2906_                           0.175047718359312 	(obj:0)
_var2907_                          0.0153555877730249 	(obj:0)
_var2908_                           0.107282293188579 	(obj:0)
_var2909_                           0.241489244079309 	(obj:0)
_var2910_                          0.0070644746311167 	(obj:0)
_var2912_                           0.158763785188001 	(obj:0)
_var2913_                           0.165732016257956 	(obj:0)
_var2914_                           0.177508375090881 	(obj:0)
_var2916_                          0.0743248200867749 	(obj:0)
_var2919_                           0.181343713093266 	(obj:0)
_var2920_                            0.12331962901783 	(obj:0)
_var2921_                           0.228360726920674 	(obj:0)
_var2923_                          0.0480655627926378 	(obj:0)
_var2924_                         0.00061167667717768 	(obj:0)
_var2926_                           0.196674834305204 	(obj:0)
_var2928_                           0.216751119820752 	(obj:0)
_var2929_                          0.0203779040162858 	(obj:0)
_var2930_                           0.065437973734937 	(obj:0)
_var2934_                          0.0527232677062168 	(obj:0)
_var2936_                          0.0289415682928689 	(obj:0)
_var2937_                          0.0731103434862988 	(obj:0)
_var2940_                          0.0501582008211704 	(obj:0)
_var2941_                          0.0387482487005316 	(obj:0)
_var2942_                          0.0226863392364434 	(obj:0)
_var2946_                           0.251737560651503 	(obj:0)
_var2947_                          0.0858805659169593 	(obj:0)
_var2948_                          0.0761472572613313 	(obj:0)
_var2949_                          0.0412262887635654 	(obj:0)
_var2950_                          0.0720412766800254 	(obj:0)
_var2951_                          0.0880884290736517 	(obj:0)
_var2952_                          0.0227588607343054 	(obj:0)
_var2953_                         0.000221175019021143 	(obj:0)
_var2955_                           0.184155177058683 	(obj:0)
_var2956_                          0.0197823736516881 	(obj:0)
_var2957_                          0.0731265571870197 	(obj:0)
_var2959_                          0.0787459544125025 	(obj:0)
_var2964_                          0.0239574796202507 	(obj:0)
_var2965_                         0.00637585359474305 	(obj:0)
_var2966_                           0.102410100218181 	(obj:0)
_var2970_                          0.0584257658847783 	(obj:0)
_var2971_                          0.0991933705666508 	(obj:0)
_var2972_                           0.145359425221313 	(obj:0)
_var2974_                         0.00844057021068853 	(obj:0)
_var2975_                          0.0480772373714215 	(obj:0)
_var2977_                           0.010124294509299 	(obj:0)
_var2979_                          0.0392101381020446 	(obj:0)
_var2981_                         5.07103946223754e-05 	(obj:0)
_var2982_                          0.0163427060430505 	(obj:0)
_var2983_                           0.015132945666321 	(obj:0)
_var2985_                          0.0310777940173874 	(obj:0)
_var2987_                         0.00155228150871133 	(obj:0)
_var2988_                          0.0195675854480426 	(obj:0)
_var2989_                          0.0535924218501525 	(obj:0)
_var2994_                          0.0852737147772257 	(obj:0)
_var2996_                           0.127739921459594 	(obj:0)
_var3000_                         0.00483182181674614 	(obj:0)
_var3001_                          0.0108228510605039 	(obj:0)
_var3003_                          0.0118498526234808 	(obj:0)
_var3020_                          0.0210936447750912 	(obj:0)
