results_rootrelaxation/bin018_050_009.srr.log
SCIP version 8.0.3.5 [precision: 8 byte] [memory: block] [mode: optimized] [LP solver: Soplex 6.0.1.3] [GitHash: 438792519e]
Copyright (c) 2002-2023 Zuse Institute Berlin (ZIB)

External libraries: 
  Readline 8.1         GNU library for command line editing (gnu.org/s/readline)
  Soplex 6.0.1.3       Linear Programming Solver developed at Zuse Institute Berlin (soplex.zib.de) [GitHash: 713be0fe]
  CppAD 20180000.0     Algorithmic Differentiation of C++ algorithms developed by B. Bell (github.com/coin-or/CppAD)
  ZLIB 1.2.11          General purpose compression library by J. Gailly and M. Adler (zlib.net)
  bliss 0.77           Computing Graph Automorphism Groups by T. Junttila and P. Kaski (www.tcs.hut.fi/Software/bliss/)

user parameter file <scip.set> not found - using default parameters

srr/relaxation = TRUE

read problem <instances/bin018_050_009.srr>
============

Original problem: 
original problem has 0 variables (0 bin, 0 int, 0 impl, 0 cont) and 170 constraints

presolving:
presolving (1 rounds: 1 fast, 1 medium, 1 exhaustive):
 0 deleted vars, 0 deleted constraints, 0 added constraints, 0 tightened bounds, 0 added holes, 0 changed sides, 0 changed coefficients
 0 implications, 0 cliques
presolved problem has 0 variables (0 bin, 0 int, 0 impl, 0 cont) and 170 constraints
    170 constraints of type <linear>
Presolving Time: 0.00

 time | node  | left  |LP iter|LP it/n|mem/heur|mdpt |vars |cons |rows |cuts |sepa|confs|strbr|  dualbound   | primalbound  |  gap   | compl. 
  0.0s|     1 |     0 |     1 |     - |   922k |   0 |   1 | 170 | 170 |   0 |  0 |   0 |   0 |      --      |      --      |    Inf | unknown
  0.3s|     1 |     0 |  2336 |     - |  7245k |   0 |1627 | 170 | 170 |   0 |  0 |   0 |   0 |      --      |      --      |    Inf | unknown
r 0.9s|     1 |     0 |  7534 |     - |simplero|   0 |2681 | 170 | 170 |   0 |  0 |   0 |   0 |      --      | 3.404011e+01 |    Inf | unknown
r 0.9s|     1 |     0 |  7624 |     - |simplero|   0 |2698 | 170 | 170 |   0 |  0 |   0 |   0 |      --      | 3.318097e+01 |    Inf | unknown
r 1.0s|     1 |     0 |  7779 |     - |simplero|   0 |2715 | 170 | 170 |   0 |  0 |   0 |   0 |      --      | 3.131085e+01 |    Inf | unknown
r 1.0s|     1 |     0 |  7915 |     - |simplero|   0 |2732 | 170 | 170 |   0 |  0 |   0 |   0 |      --      | 2.799059e+01 |    Inf | unknown
r 1.0s|     1 |     0 |  8079 |     - |simplero|   0 |2749 | 170 | 170 |   0 |  0 |   0 |   0 |      --      | 2.510833e+01 |    Inf | unknown
r 1.0s|     1 |     0 |  8292 |     - |simplero|   0 |2766 | 170 | 170 |   0 |  0 |   0 |   0 |      --      | 2.212993e+01 |    Inf | unknown
r 1.0s|     1 |     0 |  8403 |     - |simplero|   0 |2783 | 170 | 170 |   0 |  0 |   0 |   0 |      --      | 2.020709e+01 |    Inf | unknown
r 1.1s|     1 |     0 |  8447 |     - |simplero|   0 |2783 | 170 | 170 |   0 |  0 |   0 |   0 |      --      | 1.999747e+01 |    Inf | unknown
r 1.1s|     1 |     0 |  8463 |     - |simplero|   0 |2783 | 170 | 170 |   0 |  0 |   0 |   0 |      --      | 1.998847e+01 |    Inf | unknown
r 1.1s|     1 |     0 |  8565 |     - |simplero|   0 |2800 | 170 | 170 |   0 |  0 |   0 |   0 |      --      | 1.858027e+01 |    Inf | unknown
r 1.1s|     1 |     0 |  8635 |     - |simplero|   0 |2800 | 170 | 170 |   0 |  0 |   0 |   0 |      --      | 1.831201e+01 |    Inf | unknown
r 1.1s|     1 |     0 |  8640 |     - |simplero|   0 |2800 | 170 | 170 |   0 |  0 |   0 |   0 |      --      | 1.831172e+01 |    Inf | unknown
r 1.1s|     1 |     0 |  8721 |     - |simplero|   0 |2817 | 170 | 170 |   0 |  0 |   0 |   0 |      --      | 1.681137e+01 |    Inf | unknown
 time | node  | left  |LP iter|LP it/n|mem/heur|mdpt |vars |cons |rows |cuts |sepa|confs|strbr|  dualbound   | primalbound  |  gap   | compl. 
r 1.1s|     1 |     0 |  8861 |     - |simplero|   0 |2817 | 170 | 170 |   0 |  0 |   0 |   0 |      --      | 1.529469e+01 |    Inf | unknown
r 1.1s|     1 |     0 |  8908 |     - |simplero|   0 |2817 | 170 | 170 |   0 |  0 |   0 |   0 |      --      | 1.511757e+01 |    Inf | unknown
r 1.1s|     1 |     0 |  8909 |     - |simplero|   0 |2817 | 170 | 170 |   0 |  0 |   0 |   0 |      --      | 1.511757e+01 |    Inf | unknown
r 1.1s|     1 |     0 |  9052 |     - |simplero|   0 |2834 | 170 | 170 |   0 |  0 |   0 |   0 |      --      | 1.306448e+01 |    Inf | unknown
r 1.1s|     1 |     0 |  9109 |     - |simplero|   0 |2834 | 170 | 170 |   0 |  0 |   0 |   0 |      --      | 1.286681e+01 |    Inf | unknown
r 1.1s|     1 |     0 |  9117 |     - |simplero|   0 |2834 | 170 | 170 |   0 |  0 |   0 |   0 |      --      | 1.286069e+01 |    Inf | unknown
r 1.2s|     1 |     0 |  9123 |     - |simplero|   0 |2834 | 170 | 170 |   0 |  0 |   0 |   0 |      --      | 1.285997e+01 |    Inf | unknown
r 1.2s|     1 |     0 |  9258 |     - |simplero|   0 |2851 | 170 | 170 |   0 |  0 |   0 |   0 |      --      | 1.123010e+01 |    Inf | unknown
r 1.2s|     1 |     0 |  9365 |     - |simplero|   0 |2851 | 170 | 170 |   0 |  0 |   0 |   0 |      --      | 1.063647e+01 |    Inf | unknown
r 1.2s|     1 |     0 |  9398 |     - |simplero|   0 |2851 | 170 | 170 |   0 |  0 |   0 |   0 |      --      | 1.061518e+01 |    Inf | unknown
r 1.2s|     1 |     0 |  9403 |     - |simplero|   0 |2851 | 170 | 170 |   0 |  0 |   0 |   0 |      --      | 1.061411e+01 |    Inf | unknown
r 1.2s|     1 |     0 |  9493 |     - |simplero|   0 |2868 | 170 | 170 |   0 |  0 |   0 |   0 |      --      | 9.900445e+00 |    Inf | unknown
r 1.2s|     1 |     0 |  9596 |     - |simplero|   0 |2868 | 170 | 170 |   0 |  0 |   0 |   0 |      --      | 9.273630e+00 |    Inf | unknown
r 1.2s|     1 |     0 |  9641 |     - |simplero|   0 |2868 | 170 | 170 |   0 |  0 |   0 |   0 |      --      | 9.190998e+00 |    Inf | unknown
r 1.2s|     1 |     0 |  9647 |     - |simplero|   0 |2868 | 170 | 170 |   0 |  0 |   0 |   0 |      --      | 9.188831e+00 |    Inf | unknown
 time | node  | left  |LP iter|LP it/n|mem/heur|mdpt |vars |cons |rows |cuts |sepa|confs|strbr|  dualbound   | primalbound  |  gap   | compl. 
r 1.2s|     1 |     0 |  9648 |     - |simplero|   0 |2868 | 170 | 170 |   0 |  0 |   0 |   0 |      --      | 9.188817e+00 |    Inf | unknown
r 1.2s|     1 |     0 |  9822 |     - |simplero|   0 |2885 | 170 | 170 |   0 |  0 |   0 |   0 |      --      | 7.512402e+00 |    Inf | unknown
r 1.3s|     1 |     0 |  9894 |     - |simplero|   0 |2885 | 170 | 170 |   0 |  0 |   0 |   0 |      --      | 7.108179e+00 |    Inf | unknown
r 1.3s|     1 |     0 |  9915 |     - |simplero|   0 |2885 | 170 | 170 |   0 |  0 |   0 |   0 |      --      | 7.091007e+00 |    Inf | unknown
r 1.3s|     1 |     0 |  9920 |     - |simplero|   0 |2885 | 170 | 170 |   0 |  0 |   0 |   0 |      --      | 7.090737e+00 |    Inf | unknown
r 1.3s|     1 |     0 | 10067 |     - |simplero|   0 |2902 | 170 | 170 |   0 |  0 |   0 |   0 |      --      | 5.890696e+00 |    Inf | unknown
r 1.3s|     1 |     0 | 10098 |     - |simplero|   0 |2902 | 170 | 170 |   0 |  0 |   0 |   0 |      --      | 5.835853e+00 |    Inf | unknown
  1.3s|     1 |     0 | 10250 |     - |    14M |   0 |2919 | 170 | 170 |   0 |  0 |   0 |   0 |      --      | 5.835853e+00 |    Inf | unknown
r 1.3s|     1 |     0 | 10250 |     - |simplero|   0 |2919 | 170 | 170 |   0 |  0 |   0 |   0 |      --      | 4.213319e+00 |    Inf | unknown
r 1.3s|     1 |     0 | 10284 |     - |simplero|   0 |2919 | 170 | 170 |   0 |  0 |   0 |   0 |      --      | 4.125468e+00 |    Inf | unknown
r 1.3s|     1 |     0 | 10294 |     - |simplero|   0 |2919 | 170 | 170 |   0 |  0 |   0 |   0 |      --      | 4.123648e+00 |    Inf | unknown
r 1.3s|     1 |     0 | 10424 |     - |simplero|   0 |2936 | 170 | 170 |   0 |  0 |   0 |   0 |      --      | 2.499185e+00 |    Inf | unknown
r 1.3s|     1 |     0 | 10472 |     - |simplero|   0 |2936 | 170 | 170 |   0 |  0 |   0 |   0 |      --      | 2.219825e+00 |    Inf | unknown
r 1.3s|     1 |     0 | 10479 |     - |simplero|   0 |2936 | 170 | 170 |   0 |  0 |   0 |   0 |      --      | 2.217547e+00 |    Inf | unknown
r 1.4s|     1 |     0 | 10589 |     - |simplero|   0 |2953 | 170 | 170 |   0 |  0 |   0 |   0 |      --      | 1.351558e+00 |    Inf | unknown
 time | node  | left  |LP iter|LP it/n|mem/heur|mdpt |vars |cons |rows |cuts |sepa|confs|strbr|  dualbound   | primalbound  |  gap   | compl. 
r 1.4s|     1 |     0 | 10608 |     - |simplero|   0 |2953 | 170 | 170 |   0 |  0 |   0 |   0 |      --      | 1.327641e+00 |    Inf | unknown
r 1.4s|     1 |     0 | 10618 |     - |simplero|   0 |2953 | 170 | 170 |   0 |  0 |   0 |   0 |      --      | 1.320265e+00 |    Inf | unknown
r 1.4s|     1 |     0 | 10698 |     - |simplero|   0 |2970 | 170 | 170 |   0 |  0 |   0 |   0 |      --      | 7.432710e-01 |    Inf | unknown
r 1.4s|     1 |     0 | 10728 |     - |simplero|   0 |2970 | 170 | 170 |   0 |  0 |   0 |   0 |      --      | 6.666956e-01 |    Inf | unknown
r 1.4s|     1 |     0 | 10810 |     - |simplero|   0 |2987 | 170 | 170 |   0 |  0 |   0 |   0 |      --      | 2.910398e-01 |    Inf | unknown
r 1.4s|     1 |     0 | 10827 |     - |simplero|   0 |2987 | 170 | 170 |   0 |  0 |   0 |   0 |      --      | 2.747216e-01 |    Inf | unknown
r 1.4s|     1 |     0 | 10898 |     - |simplero|   0 |3004 | 170 | 170 |   0 |  0 |   0 |   0 |      --      | 9.645960e-02 |    Inf | unknown
r 1.4s|     1 |     0 | 10928 |     - |simplero|   0 |3004 | 170 | 170 |   0 |  0 |   0 |   0 |      --      | 4.587317e-02 |    Inf | unknown
r 1.4s|     1 |     0 | 10949 |     - |simplero|   0 |3004 | 170 | 170 |   0 |  0 |   0 |   0 |      --      | 3.277068e-02 |    Inf | unknown
r 1.4s|     1 |     0 | 10954 |     - |simplero|   0 |3021 | 170 | 170 |   0 |  0 |   0 |   0 |      --      | 0.000000e+00 |    Inf | unknown
  1.4s|     1 |     0 | 10954 |     - |    15M |   0 |3021 | 170 | 170 |   0 |  0 |   0 |   0 | 0.000000e+00 | 0.000000e+00 |   0.00%| unknown
  1.4s|     1 |     0 | 10954 |     - |    15M |   0 |3021 | 170 | 170 |   0 |  0 |   0 |   0 | 0.000000e+00 | 0.000000e+00 |   0.00%| unknown

SCIP Status        : problem is solved [optimal solution found]
Solving Time (sec) : 1.44
Solving Nodes      : 1
Primal Bound       : +0.00000000000000e+00 (52 solutions)
Dual Bound         : +0.00000000000000e+00
Gap                : 0.00 %

written transformed problem to file <results_rootrelaxation/bin018_050_009.srr.lp>
written transformed problem to file <results_rootrelaxation/bin018_050_009.srr.cip>

written solution information to file <results_rootrelaxation/bin018_050_009.srr.sol>



